aux_benchmarks/lp2sat/smokers_6_5_prob.lp.lp.cnf
p cnf 31 50
8 26 0
-8 -26 0
9 -8 0
-9 8 0
10 27 0
-10 -27 0
11 -10 0
-11 10 0
12 28 0
-12 -28 0
13 -12 0
-13 12 0
14 29 0
-14 -29 0
15 -14 0
-15 14 0
16 30 0
-16 -30 0
17 -16 0
-17 16 0
18 31 0
-18 -31 0
19 -18 0
-19 18 0
20 0
21 0
22 0
23 0
24 0
25 0
26 8 0
-26 -8 0
27 10 0
-27 -10 0
28 12 0
-28 -12 0
29 14 0
-29 -14 0
30 16 0
-30 -16 0
31 18 0
-31 -18 0
-1 0
-1 0
-2 0
-3 0
-4 0
-5 0
-6 0
-7 0
c p auxilliary 1 2 3 4 5 6 7 26 27 28 29 30 31 0
